c b=6,c=321
p cnf 21 115
6 -12 0
3 4 6 -18 0
2 3 6 -20 0
-6 12 0
3 4 -6 18 0
3 4 -6 20 0
5 -11 0
2 3 5 -17 0
1 4 5 -19 0
-5 11 0
2 3 -5 17 0
3 4 -5 19 0
4 -10 0
1 2 4 -16 0
3 4 -21 0
2 3 -4 6 18 0
1 2 5 6 -19 0
2 3 -4 -6 -18 0
-4 5 -6 19 0
5 -6 20 0
5 -21 0
2 3 -5 6 19 0
6 -21 0
-4 -5 -6 -19 0
-4 -5 -6 21 0
2 3 -4 -5 -20 0
-4 10 0
1 2 -4 16 0
3 -9 0
1 3 -15 0
1 2 4 5 6 -18 0
4 6 -20 0
1 2 4 5 -6 18 0
1 2 -3 5 17 0
-3 4 -5 6 18 0
4 -5 6 19 0
-3 4 -5 -6 -18 0
1 -3 4 -6 -19 0
-3 -5 -6 21 0
1 2 -3 -5 -17 0
-3 4 -5 -20 0
1 2 -4 5 6 18 0
1 2 -3 -4 6 -19 0
5 6 -20 0
1 2 -4 5 -6 -18 0
-3 -4 -5 6 -18 0
-3 -4 -5 6 20 0
-3 -4 -5 -6 18 0
-3 -5 -6 -20 0
-3 -4 -5 -19 0
-3 9 0
1 -3 15 0
2 -8 0
2 -14 0
1 3 4 5 -17 0
1 3 4 -5 17 0
1 -2 4 16 0
3 -4 5 6 18 0
-2 3 -4 6 -19 0
3 -4 5 -6 -18 0
-2 3 -4 5 17 0
-2 3 -5 6 -18 0
-2 -4 -5 6 20 0
-2 3 -5 -6 18 0
-2 -4 -5 -6 -20 0
-2 3 -4 -5 -17 0
-2 -4 -5 -19 0
1 -2 -4 -16 0
1 -2 -3 5 6 -18 0
1 -2 -3 5 -6 18 0
1 -3 4 5 17 0
1 -3 4 -5 -17 0
-2 -3 -4 6 -18 0
-2 -3 -4 -6 18 0
-2 -3 -4 5 -17 0
-2 -3 -4 5 19 0
-2 -3 -4 -5 17 0
-2 8 0
-2 14 0
1 -7 0
1 -13 0
2 4 5 -19 0
2 3 4 -16 0
2 3 5 6 -19 0
2 3 -4 16 0
-1 3 15 0
-1 2 -3 5 6 -18 0
-1 2 -3 5 -6 18 0
2 -3 4 5 17 0
2 -3 4 -6 -19 0
2 -3 4 -5 -17 0
-1 2 -3 4 16 0
-1 -3 -4 6 -18 0
-1 -3 -4 -6 18 0
-1 2 -4 5 -17 0
-1 -3 -4 5 19 0
-1 2 -4 -5 17 0
-1 2 -3 -4 -16 0
-1 -3 -15 0
-1 -2 4 5 -17 0
3 4 5 -19 0
-1 -2 4 -5 17 0
-2 3 4 16 0
-2 3 -4 -16 0
-1 -2 -3 4 6 18 0
4 5 6 -19 0
-1 -2 -3 4 -6 -18 0
-1 -2 -3 5 -6 19 0
-1 -2 -3 5 -17 0
-1 -2 -3 -5 -6 -19 0
-1 -2 -3 -5 17 0
-1 -2 -3 4 -16 0
-1 -2 -3 -4 16 0
-1 7 0
-1 13 0
